c A SAT instance generated from a 3-CNF formula that had 39 clauses and 13 variables
p cnf 13 39
11 -5 13 0
-11 4 -12 0
-12 5 2 0
1 -7 9 0
12 1 -9 0
-12 10 -8 0
-10 -1 -5 0
-1 -4 -12 0
-9 4 3 0
13 1 4 0
-9 -8 11 0
-5 3 2 0
-10 11 2 0
1 -10 -5 0
9 10 -12 0
6 -10 -13 0
-10 6 -8 0
10 11 8 0
-8 3 1 0
2 -1 -3 0
-8 3 -12 0
-5 -4 -6 0
-4 8 -5 0
-3 2 -7 0
-7 8 2 0
9 12 -4 0
9 -2 -13 0
-13 12 7 0
3 -5 11 0
-6 -10 -12 0
10 12 -4 0
8 -11 -5 0
1 13 11 0
-13 1 -6 0
13 -11 4 0
1 10 -13 0
4 -2 -3 0
-7 -11 3 0
10 -5 -7 0
